7
2147483647 12 45 68 7 64 10 
12 2147483647 2 39 88 58 1 
45 2 2147483647 32 16 40 2 
68 39 32 2147483647 1 94 84 
7 88 16 1 2147483647 93 94 
64 58 40 94 93 2147483647 45 
10 1 2 84 94 45 2147483647 
